Total weight: 1396.655191029174
Route 1: 0 95 92 42 2 72 39 21 15 23 67 75 73 40 87 94 6 53 0 
Route 2: 0 27 69 31 52 82 19 62 88 7 8 84 86 96 97 37 91 17 60 89 13 58 0 
Route 3: 0 47 36 45 83 5 59 98 14 38 44 16 61 85 99 18 90 49 46 10 20 32 66 35 68 77 1 70 48 93 100 0 
Route 4: 0 33 65 63 64 11 50 71 9 34 3 29 26 0 
Route 5: 0 28 12 76 30 51 81 78 79 22 41 57 43 56 74 4 54 55 25 24 80 0 
